HFSDDW
15	6	3
0	40	1	61	2	23
0	26	1	93	2	90
0	34	1	8	2	24
0	84	1	33	2	17
0	20	1	14	2	69
0	10	1	47	2	2
0	80	1	47	2	47
0	74	1	69	2	42
0	8	1	90	2	29
0	56	1	93	2	88
0	65	1	67	2	47
0	66	1	41	2	51
0	73	1	70	2	45
0	23	1	38	2	96
0	38	1	38	2	36
LBCmax: 428
RELDUE
-1	328	6	8
-1	323	2	4
-1	306	2	6
-1	371	7	5
-1	375	7	2
-1	349	4	7
-1	307	6	6
-1	380	1	5
-1	312	4	3
-1	335	1	7
-1	356	6	2
-1	379	7	1
-1	369	3	6
-1	315	7	3
-1	302	3	7
DDW
289	367
262	384
272	340
338	404
326	424
307	391
255	359
376	384
300	324
285	385
310	402
322	436
339	399
274	356
269	335
